set tyres := 1 2 3;
set laps := 1 2 3 4 5 6 7 8 9 10 11 12 13 14 15 16 17 18 19 20 21 22 23 24 25 26 27 28 29 30 31;
set stints := 1 2 3 4 5 6 7 8 9 10 11 12 13 14 15 16 17 18 19;
param time:
        1       2       3       4       5       6       7       8       9       10      11      12      13      14      15      16      17      18      19=
    1   72.056  69.165  69.712  70.309  70.148  69.352  70.695  70.408  70.485  70.107  69.881  70.344  69.786  70.267  70.335  70.373  70.071  70.698  70.109
    2   73.559  70.127  70.419  70.045  69.766  69.699  69.728  70.651  69.774  70.070  70.410  70.840  69.795  70.940  70.152  70.002  69.644  70.472  70.603
    3   71.634  67.964  67.921  67.426  68.536  68.548  68.428  69.302  68.015  68.522  68.568  68.729  68.234  68.158  68.113  68.331  68.334  69.023  68.638;
